
Gurobi 13.0.1 (win64) logging started Thu Apr  9 23:54:31 2026

Set parameter LogFile to value "C:\Users\jiho\code\cloud_vmp_optimization\experiments\2604-chance-2sp-toy\results\runs\chance_2sp_toy_24vm_ratio_service_heavy_od14_sp5_bj5_sc10_cap8_avg20_lam000\solver.log"
Set parameter Threads to value 8
Gurobi Optimizer version 13.0.1 build v13.0.1rc0 (win64 - Windows 11+.0 (26200.2))

CPU model: 13th Gen Intel(R) Core(TM) i9-13900K, instruction set [SSE2|AVX|AVX2]
Thread count: 24 physical cores, 32 logical processors, using up to 8 threads

Non-default parameters:
TimeLimit  7200
MIPGap  0.001
Threads  8

Optimize a model with 54703 rows, 36468 columns and 399822 nonzeros (Min)
Model fingerprint: 0xe506e280
Model has 7 linear objective coefficients
Variable types: 1680 continuous, 34788 integer (34788 binary)
Coefficient statistics:
  Matrix range     [2e-02, 4e+01]
  Objective range  [1e+00, 1e+00]
  Bounds range     [1e+00, 1e+00]
  RHS range        [1e-01, 2e+01]

Presolve removed 8603 rows and 3833 columns
Presolve time: 0.98s
Presolved: 46100 rows, 32635 columns, 378346 nonzeros
Variable types: 0 continuous, 32635 integer (32635 binary)
Deterministic concurrent LP optimizer: primal and dual simplex
Showing primal log only...


Root simplex log...

Iteration    Objective       Primal Inf.    Dual Inf.      Time
   10949    4.1711518e+00   0.000000e+00   4.359003e+02      5s
   14619    3.7855570e+00   0.000000e+00   1.296913e+02     10s
   18839    3.4295602e+00   0.000000e+00   8.167952e+02     15s
   22449    3.1668149e+00   0.000000e+00   7.022073e+02     20s
   25549    2.9316792e+00   0.000000e+00   1.077749e+04     25s
   28729    2.7638649e+00   0.000000e+00   8.971477e+02     30s
   31529    2.6054307e+00   0.000000e+00   3.076623e+03     35s
   34389    2.4157863e+00   0.000000e+00   2.673920e+03     40s
   37579    2.2751816e+00   0.000000e+00   3.298865e+02     45s
   40769    2.1607781e+00   0.000000e+00   3.417570e+04     50s
   42939    1.8113374e+00   0.000000e+00   1.014133e+04     55s
   44889    1.6487136e+00   0.000000e+00   1.696499e+03     60s
   46819    1.5685501e+00   0.000000e+00   6.948159e+03     65s
   48229    1.5392627e+00   0.000000e+00   4.293865e+03     70s
   49709    1.4785019e+00   0.000000e+00   1.884943e+02     75s
   51009    1.4377546e+00   0.000000e+00   1.114897e+03     80s
   52299    1.4051978e+00   0.000000e+00   2.771278e+03     85s
   53409    1.3788108e+00   0.000000e+00   4.319387e+03     90s
   54559    1.3595245e+00   0.000000e+00   1.200684e+03     95s
   55779    1.3314610e+00   0.000000e+00   9.934011e+02    100s
   57189    1.2819199e+00   0.000000e+00   3.639304e+02    105s
   58569    1.1941708e+00   0.000000e+00   2.828725e+03    110s
   59799    1.1251769e+00   0.000000e+00   1.518429e+04    115s
   61189    1.0989877e+00   0.000000e+00   3.695457e+02    121s
Concurrent spin time: 0.00s

Solved with dual simplex

Root simplex log...

Iteration    Objective       Primal Inf.    Dual Inf.      Time
   57174    1.0000000e+00   0.000000e+00   0.000000e+00    123s

Root relaxation: objective 1.000000e+00, 57174 iterations, 121.99 seconds (119.33 work units)

    Nodes    |    Current Node    |     Objective Bounds      |     Work
 Expl Unexpl |  Obj  Depth IntInf | Incumbent    BestBd   Gap | It/Node Time

     0     0    1.00000    0 12678          -    1.00000      -     -  459s
     0     0    2.11314    0 15594          -    2.11314      -     -  595s
H    0     0                       7.0000000    2.11314  69.8%     -  608s
     0     0    2.11334    0 13376    7.00000    2.11334  69.8%     -  700s
H    0     0                       6.0000000    2.11334  64.8%     -  701s
     0     0    2.11810    0 13635    6.00000    2.11810  64.7%     -  879s
     0     0    2.15998    0 10331    6.00000    2.15998  64.0%     -  986s
     0     0    2.16983    0 6920    6.00000    2.16983  63.8%     - 1050s
     0     0    3.00000    0 3179    6.00000    3.00000  50.0%     - 1058s
H    0     0                       5.0000000    3.00000  40.0%     - 1059s
     0     0    3.00000    0 3548    5.00000    3.00000  40.0%     - 1073s
     0     0    3.00000    0 3686    5.00000    3.00000  40.0%     - 1076s
     0     0    3.00000    0 3791    5.00000    3.00000  40.0%     - 1085s
     0     0    3.00000    0 2002    5.00000    3.00000  40.0%     - 1120s
     0     0    3.00000    0 2005    5.00000    3.00000  40.0%     - 1132s
     0     0    3.00000    0 2510    5.00000    3.00000  40.0%     - 1139s
     0     0    3.00000    0 1946    5.00000    3.00000  40.0%     - 1166s
     0     0    3.00000    0 1934    5.00000    3.00000  40.0%     - 1176s
     0     0    3.00000    0 2387    5.00000    3.00000  40.0%     - 1183s
     0     0    3.00000    0 2128    5.00000    3.00000  40.0%     - 1205s
     0     0    3.00000    0 2235    5.00000    3.00000  40.0%     - 1214s
     0     0    3.00000    0 2923    5.00000    3.00000  40.0%     - 1222s
     0     0    3.00000    0 2112    5.00000    3.00000  40.0%     - 1249s
     0     0    3.00000    0 2179    5.00000    3.00000  40.0%     - 1260s
     0     0    3.00000    0 2578    5.00000    3.00000  40.0%     - 1267s
     0     0    3.00000    0 2121    5.00000    3.00000  40.0%     - 1284s
     0     0    3.00000    0 2278    5.00000    3.00000  40.0%     - 1288s
     0     0    3.00000    0 2709    5.00000    3.00000  40.0%     - 1296s
     0     0    3.00000    0 2169    5.00000    3.00000  40.0%     - 1327s
     0     0    3.00000    0 2169    5.00000    3.00000  40.0%     - 1335s
     0     0    3.00000    0 2097    5.00000    3.00000  40.0%     - 1344s
     0     0    3.00000    0 2661    5.00000    3.00000  40.0%     - 1392s
     0     0    3.00000    0 3282    5.00000    3.00000  40.0%     - 1399s
     0     0    3.00000    0 3124    5.00000    3.00000  40.0%     - 1400s
     0     0    3.00000    0 3180    5.00000    3.00000  40.0%     - 1408s
     0     0    3.00000    0 1942    5.00000    3.00000  40.0%     - 1429s
     0     0    3.00000    0 1972    5.00000    3.00000  40.0%     - 1429s
     0     0    3.00000    0 2494    5.00000    3.00000  40.0%     - 1434s
     0     0    3.00000    0 2030    5.00000    3.00000  40.0%     - 1445s
     0     0    3.00000    0 2052    5.00000    3.00000  40.0%     - 1446s
     0     0    3.00000    0 2347    5.00000    3.00000  40.0%     - 1451s
     0     0    3.00000    0 1961    5.00000    3.00000  40.0%     - 1461s
     0     0    3.00000    0 2278    5.00000    3.00000  40.0%     - 1464s
     0     0    3.00000    0 2816    5.00000    3.00000  40.0%     - 1469s
     0     0    3.00000    0 1929    5.00000    3.00000  40.0%     - 1484s
     0     0    3.00000    0 2162    5.00000    3.00000  40.0%     - 1486s
     0     0    3.00000    0 2677    5.00000    3.00000  40.0%     - 1490s
     0     0    3.00000    0 2118    5.00000    3.00000  40.0%     - 1509s
     0     0    3.00000    0 2151    5.00000    3.00000  40.0%     - 1510s
     0     0    3.00000    0 2486    5.00000    3.00000  40.0%     - 1514s
     0     0    3.00000    0 2265    5.00000    3.00000  40.0%     - 1539s
     0     0    3.00000    0 2265    5.00000    3.00000  40.0%     - 1540s
     0     0    3.00000    0 1905    5.00000    3.00000  40.0%     - 1547s
     0     2    3.00000    0 1905    5.00000    3.00000  40.0%     - 1558s
     3     8    3.00000    2 2312    5.00000    3.00000  40.0%  2024 1560s
     7    14    4.00000    3 1405    5.00000    3.00000  40.0%  3993 1569s
    13    22    4.00000    4 1431    5.00000    3.00000  40.0%  4975 1574s
    21    52    4.00000    5 1427    5.00000    3.00000  40.0%  5712 1595s
    51   107    4.00000   14  869    5.00000    3.00000  40.0%  3489 1607s
   106   261    4.00000   24  763    5.00000    3.00000  40.0%  2232 1619s
   269   501    4.00000   27  791    5.00000    3.00000  40.0%  1221 1645s
   555   515    4.00000   27  866    5.00000    3.00000  40.0%   943 1671s
   571   522    4.00000   28  827    5.00000    3.00000  40.0%  1069 1716s
   580   545    4.00000   28  858    5.00000    3.00000  40.0%  1123 1751s
   610   549    4.00000   40  520    5.00000    3.00000  40.0%  1169 1792s
   620   555    4.00000   41  504    5.00000    3.00000  40.0%  1196 1835s
   630   894    4.00000   42  501    5.00000    3.00000  40.0%  1231 1881s
  1026  1588    4.00000  182  236    5.00000    3.00000  40.0%   860 1921s
  1821  2406    4.00000  325  273    5.00000    3.00000  40.0%   611 1947s
  2741  2407    4.00000   72 10331    5.00000    3.00000  40.0%   499 1958s
  2743  2408    4.00000  195 2661    5.00000    3.00000  40.0%   499 1972s
  2744  2409    4.00000  293 3089    5.00000    3.00000  40.0%   499 1978s
  2745  2410    4.00000  128 2926    5.00000    3.00000  40.0%   499 1983s
  2746  2410    4.00000   89 2460    5.00000    3.00000  40.0%   499 2022s
  2747  2411    4.00000    8 2416    5.00000    3.00000  40.0%   498 2029s
  2748  2412    4.00000   28 2159    5.00000    3.00000  40.0%   498 2072s
  2749  2412    4.00000  141 2783    5.00000    3.00000  40.0%   498 2081s
  2750  2413    4.00000  253 2555    5.00000    3.00000  40.0%   498 2121s
  2751  2414    4.00000  270 2790    5.00000    3.00000  40.0%   498 2126s
  2752  2414    4.00000  165 3242    5.00000    3.00000  40.0%   497 2135s
  2753  2415    4.00000   88 2967    5.00000    3.00000  40.0%   497 2141s
  2754  2416    4.00000  440 3239    5.00000    3.00000  40.0%   497 2150s
  2755  2416    4.00000  162 3198    5.00000    3.00000  40.0%   497 2156s
  2756  2417    4.00000   48 3839    5.00000    3.00000  40.0%   497 2167s
  2757  2418    4.00000   39 3768    5.00000    3.00000  40.0%   497 2175s
  2758  2418    4.00000  150 3678    5.00000    3.00000  40.0%   496 2186s
  2759  2419    4.00000  149 3818    5.00000    3.00000  40.0%   496 2197s
  2760  2420    4.00000  460 3877    5.00000    3.00000  40.0%   496 2208s
  2761  2420    4.00000   20 3846    5.00000    3.00000  40.0%   496 2219s
  2762  2421    4.00000  104 3896    5.00000    3.00000  40.0%   496 2233s
  2763  2422    4.00000  164 3895    5.00000    3.00000  40.0%   496 2236s
  2764  2422    4.00000   51 3895    5.00000    3.00000  40.0%   495 2261s
  2765  2426    4.00000   13 2340    5.00000    3.00000  40.0%   595 2265s
  2767  2425 infeasible   14         5.00000    3.00000  40.0%   597 2271s
  2771  2428    3.00000   15 2982    5.00000    3.00000  40.0%   607 2279s
  2775  2431    3.00000   16 3074    5.00000    3.00000  40.0%   611 2284s
  2783  2438    3.00000   17 2890    5.00000    3.00000  40.0%   616 2290s
  2797  2455    3.00000   18 2768    5.00000    3.00000  40.0%   630 2297s
  2819  2465    3.00000   18 2589    5.00000    3.00000  40.0%   640 2304s
  2838  2474    4.00000   21 1311    5.00000    3.00000  40.0%   641 2313s
  2853  2482    3.00000   19 2687    5.00000    3.00000  40.0%   647 2321s
  2866  2490    3.00000   20 2612    5.00000    3.00000  40.0%   649 2329s
  2879  2498    3.00000   20 2616    5.00000    3.00000  40.0%   652 2338s
  2891  2508    3.00000   21 2587    5.00000    3.00000  40.0%   659 2347s
  2905  2510    3.00000   23 2479    5.00000    3.00000  40.0%   660 2357s
  2912  2516    3.00000   23 2286    5.00000    3.00000  40.0%   664 2365s
  2920  2522    3.00000   24 2467    5.00000    3.00000  40.0%   671 2375s
  2929  2527    3.00000   25 2403    5.00000    3.00000  40.0%   678 2391s
  2937  2542    3.00000   25 2077    5.00000    3.00000  40.0%   689 2406s
  2954  2552    3.00000   26 2394    5.00000    3.00000  40.0%   696 2415s
  2970  2554    3.00000   26 2395    5.00000    3.00000  40.0%   702 2424s
  2979  2560    3.00000   27 2377    5.00000    3.00000  40.0%   707 2445s
  2988  2606    3.00000   28 2578    5.00000    3.00000  40.0%   719 2457s
  3039  2651    4.00000   42  437    5.00000    3.00000  40.0%   717 2470s
  3101  2714    3.00000   29 2574    5.00000    3.00000  40.0%   716 2487s
  3187  2736    4.00000   59  434    5.00000    3.00000  40.0%   724 2511s
  3260  2769    3.00000   30 2563    5.00000    3.00000  40.0%   725 2533s
  3323  2819    3.00000   31 2561    5.00000    3.00000  40.0%   718 2548s
  3412  2893    4.00000   91  427    5.00000    3.00000  40.0%   717 2561s
  3516  2958    3.00000   32 2506    5.00000    3.00000  40.0%   709 2575s
  3619  3027    3.00000   33 2506    5.00000    3.00000  40.0%   700 2582s
  3727  3075    4.00000  129  399    5.00000    3.00000  40.0%   694 2598s
  3835  3140    3.00000   36 2594    5.00000    3.00000  40.0%   699 2612s
  3940  3114    4.00000  103 1542    5.00000    3.00000  40.0%   704 2643s
  3949  3132    3.00000   37 2589    5.00000    3.00000  40.0%   705 2672s
  3972  3164    3.00000   35 2491    5.00000    3.00000  40.0%   719 2687s
  4012  3218 infeasible  105         5.00000    3.00000  40.0%   715 2717s
  4090  3307    4.00000   54  489    5.00000    3.00000  40.0%   710 2735s
  4215  3420    4.00000   75  521    5.00000    3.00000  40.0%   705 2753s
  4409  3601    4.00000   99  482    5.00000    3.00000  40.0%   696 2769s
  4667  3697    4.00000  125  730    5.00000    3.00000  40.0%   677 2798s
  4891  3815    4.00000  148  454    5.00000    3.00000  40.0%   660 2819s
  5134  3976    4.00000   41 2080    5.00000    3.00000  40.0%   643 2836s
  5418  4244    4.00000   57  808    5.00000    3.00000  40.0%   622 2855s
  5823  4458    4.00000  100  323    5.00000    3.00000  40.0%   596 2875s
  6218  4797    4.00000  149  298    5.00000    3.00000  40.0%   577 2885s
  6743  5136    4.00000  197  295    5.00000    3.00000  40.0%   549 2898s
  7345  5402    4.00000  243  271    5.00000    3.00000  40.0%   524 2917s
  7897  5948    4.00000  298  257    5.00000    3.00000  40.0%   498 2933s
  8671  6510    4.00000  354  282    5.00000    3.00000  40.0%   467 2949s
  9560  7027    4.00000  425  273    5.00000    3.00000  40.0%   438 2966s
 10504  7667    4.00000  511  254    5.00000    3.00000  40.0%   414 2987s
 11485  7674    4.00000  588  285    5.00000    3.00000  40.0%   391 3003s
 11492  7678    4.00000  589  303    5.00000    3.00000  40.0%   390 3022s
 11500  7684    4.00000  589  286    5.00000    3.00000  40.0%   390 3039s
 11508  7793 infeasible  587         5.00000    3.00000  40.0%   390 3054s
 11642  8269    4.00000  590  285    5.00000    3.00000  40.0%   389 3076s
 12270  9553    4.00000  602  305    5.00000    3.00000  40.0%   377 3098s
 13764 10758    4.00000  699  370    5.00000    3.00000  40.0%   353 3120s
 15131 10763 infeasible  144         5.00000    3.00000  40.0%   337 3151s
 15140 12989    4.00000  288  360    5.00000    3.00000  40.0%   337 3593s
 17620 14059    4.00000  450  327    5.00000    3.00000  40.0%   348 3629s
 18924 16370    4.00000  610  293    5.00000    3.00000  40.0%   335 3669s
 21655 17063 infeasible  502         5.00000    3.00000  40.0%   314 3703s
 22529 18939 infeasible  622         5.00000    3.00000  40.0%   310 3732s
 24623 20439    4.00000  109  365    5.00000    3.00000  40.0%   301 3766s
 26458 21547    4.00000  259  390    5.00000    3.00000  40.0%   293 3797s
 27829 22632    4.00000  309  367    5.00000    3.00000  40.0%   289 3826s
 29118 23035    4.00000  426  369    5.00000    3.00000  40.0%   285 3855s
 29735 24266    4.00000  393  453    5.00000    3.00000  40.0%   284 4886s
 31394 24511    4.00000  732  398    5.00000    3.00000  40.0%   280 4912s
 31686 25287    4.00000  437  488    5.00000    3.00000  40.0%   281 4952s
 32636 26565    4.00000   61  496    5.00000    3.00000  40.0%   280 4996s
 34155 26969 infeasible  160         5.00000    3.00000  40.0%   278 5031s
 34607 28306 infeasible  455         5.00000    3.00000  40.0%   277 5081s
 36134 30856    4.00000  327  356    5.00000    3.00000  40.0%   273 5134s
 39041 31009 infeasible  546         5.00000    3.00000  40.0%   265 5164s
 39278 31007 infeasible  492         5.00000    3.00000  40.0%   265 5191s
 39286 31422 infeasible  530         5.00000    3.00000  40.0%   265 5218s
 39808 32371    4.00000  486  362    5.00000    3.00000  40.0%   264 5248s
 40919 32968    4.00000  486  405    5.00000    3.00000  40.0%   261 5272s
 41612 33208    4.00000  634  339    5.00000    3.00000  40.0%   260 5299s
 41956 33672    4.00000  506  331    5.00000    3.00000  40.0%   260 5328s
 42557 34238    4.00000  680  431    5.00000    3.00000  40.0%   259 5363s
 43253 35257    4.00000  541  299    5.00000    3.00000  40.0%   258 5392s
 44422 36336 infeasible  716         5.00000    3.00000  40.0%   256 5440s
 45736 36702    4.00000  752  403    5.00000    3.00000  40.0%   254 5480s
 46328 38208 infeasible  320         5.00000    3.00000  40.0%   254 5531s
 48396 38462    4.00000  329  344    5.00000    3.00000  40.0%   252 5601s
 48863 38897    4.00000  380  326    5.00000    3.00000  40.0%   252 5640s
 49336 39197    4.00000  607  262    5.00000    3.00000  40.0%   252 5681s
 49760 39847 infeasible  704         5.00000    3.00000  40.0%   252 5721s
 50606 40556    4.00000  375  346    5.00000    3.00000  40.0%   251 5773s
 51583 40723 infeasible  623         5.00000    3.00000  40.0%   250 5823s
 51875 40985 infeasible  591         5.00000    3.00000  40.0%   250 5912s
 52255 42328 infeasible  610         5.00000    3.00000  40.0%   249 5966s
 53966 43518    4.00000  482  346    5.00000    3.00000  40.0%   248 6016s
 55533 44460    4.00000  752  291    5.00000    3.00000  40.0%   246 6081s
 57016 45557 infeasible  763         5.00000    3.00000  40.0%   245 6145s
 58475 45697 infeasible  769         5.00000    3.00000  40.0%   244 6198s
 58827 46019 infeasible  773         5.00000    3.00000  40.0%   244 6247s
 59321 46135 infeasible  803         5.00000    3.00000  40.0%   243 6302s
 59604 47007    4.00000  641  443    5.00000    3.00000  40.0%   243 6473s
 60573 47696 infeasible  777         5.00000    3.00000  40.0%   248 6631s
 61392 48346 infeasible  512         5.00000    3.00000  40.0%   250 6815s
 62115 51010    4.00000  796  382    5.00000    3.00000  40.0%   253 7042s
 65374 51403    4.00000   23 2856    5.00000    3.00000  40.0%   252 7156s
 65827 52848    4.00000  232  321    5.00000    3.00000  40.0%   252 7200s

Cutting planes:
  Gomory: 8
  Cover: 5177
  Clique: 57
  MIR: 7771
  Mixing: 1
  StrongCG: 6700
  Flow cover: 3661
  GUB cover: 325
  Inf proof: 1
  Zero half: 27
  RLT: 647
  Relax-and-lift: 4

Explored 67516 nodes (17898671 simplex iterations) in 7200.51 seconds (10191.25 work units)
Thread count was 8 (of 32 available processors)

Solution count 3: 5 6 7 

Time limit reached
Best objective 5.000000000000e+00, best bound 3.000000000000e+00, gap 40.0000%
